9,1,6,2,2,1,10,1,7,4,4,3,8,4,1,1,3,3,5,2;6,1,8,1,7,1,2,2,4,2,9,5,5,1,3,2,1,2,10,5;9,2,4,1,7,2,8,2,2,3,6,5,3,1,10,2,1,3,5,5;9,3,6,4,2,4,7,5,8,5,4,5,3,5,10,3,1,4,5,4;6,3,7,3,9,4,8,3,2,5,4,4,3,4,5,3,10,4,1,5;6,7,2,8,8,6,3,6,4,8,10,6,1,6,9,9,7,9,5,7;6,6,9,6,2,7,7,6,4,7,3,7,8,10,1,7,5,6,10,10;2,6,9,7,4,6,8,7,7,7,3,8,10,7,6,10,1,8,5,10;6,9,8,8,2,10,3,9,10,8,4,10,7,10,1,9,5,9,9,10;6,8,2,9,8,9,9,8,7,8,4,9,3,10,10,9,5,8,1,10;
